13046.3,53.38,60.64
14063.38,49.52,56.25
14136.03,49.26,55.96
13472.98,51.69,58.72
14188.89,49.08,55.76
12786.97,54.46,61.87
14021.77,49.67,56.42
14013.11,49.7,56.45
13906.34,50.08,56.89
13129.84,53.04,60.25
13650.49,51.02,57.95
14371.5,48.46,55.05
14129.15,49.29,55.99
13234.66,52.62,59.78
15548.43,44.79,50.88
14507.32,48.0,54.53
12300.89,56.61,64.31
12128.69,57.42,65.23
12630.96,55.13,62.63
14547.95,47.87,54.38
